p cnf 258 1209
5 0
-1 0
-2 0
-3 0
-4 0
35 10 0
-35 -10 0
6 0
-7 0
-8 0
-9 0
-10 0
1 11 36 0
-1 -11 0
-1 -36 0
-11 -36 0
-11 -192 0
-11 -193 0
-11 -194 0
-12 192 0
-12 -193 0
-12 -194 0
-13 -192 0
-13 193 0
-13 -194 0
-14 192 0
-14 193 0
-14 -194 0
-15 -192 0
-15 -193 0
-15 194 0
-11 6 16 0
-11 6 41 0
-11 16 41 0
-12 7 17 0
-12 7 42 0
-12 17 42 0
-13 8 18 0
-13 8 43 0
-13 18 43 0
-14 9 19 0
-14 9 44 0
-14 19 44 0
-15 10 20 0
-15 10 45 0
-15 20 45 0
-11 -6 -16 -41 0
-12 -7 -17 -42 0
-13 -8 -18 -43 0
-14 -9 -19 -44 0
-15 -10 -20 -45 0
-16 -195 0
-16 -196 0
-16 -197 0
-17 195 0
-17 -196 0
-17 -197 0
-18 -195 0
-18 196 0
-18 -197 0
-19 195 0
-19 196 0
-19 -197 0
-20 -195 0
-20 -196 0
-20 197 0
-16 11 21 0
-16 11 46 0
-16 21 46 0
-17 12 22 0
-17 12 47 0
-17 22 47 0
-18 13 23 0
-18 13 48 0
-18 23 48 0
-19 14 24 0
-19 14 49 0
-19 24 49 0
-20 15 25 0
-20 15 50 0
-20 25 50 0
-16 -11 -21 -46 0
-17 -12 -22 -47 0
-18 -13 -23 -48 0
-19 -14 -24 -49 0
-20 -15 -25 -50 0
-21 -198 0
-21 -199 0
-21 -200 0
-22 198 0
-22 -199 0
-22 -200 0
-23 -198 0
-23 199 0
-23 -200 0
-24 198 0
-24 199 0
-24 -200 0
-25 -198 0
-25 -199 0
-25 200 0
-21 16 26 0
-21 16 51 0
-21 26 51 0
-22 17 27 0
-22 17 52 0
-22 27 52 0
-23 18 28 0
-23 18 53 0
-23 28 53 0
-24 19 29 0
-24 19 54 0
-24 29 54 0
-25 20 30 0
-25 20 55 0
-25 30 55 0
-21 -16 -26 -51 0
-22 -17 -27 -52 0
-23 -18 -28 -53 0
-24 -19 -29 -54 0
-25 -20 -30 -55 0
-26 -201 0
-26 -202 0
-26 -203 0
-27 201 0
-27 -202 0
-27 -203 0
-28 -201 0
-28 202 0
-28 -203 0
-29 201 0
-29 202 0
-29 -203 0
-30 -201 0
-30 -202 0
-30 203 0
-26 56 0
-26 21 0
-27 57 0
-27 22 0
-28 58 0
-28 23 0
-29 59 0
-29 24 0
-30 60 0
-30 25 0
-31 -204 0
-31 -205 0
-31 -206 0
-32 204 0
-32 -205 0
-32 -206 0
-33 -204 0
-33 205 0
-33 -206 0
-34 204 0
-34 205 0
-34 -206 0
-35 -204 0
-35 -205 0
-35 206 0
-31 61 36 0
-31 61 1 0
-31 36 1 0
-32 62 37 0
-32 62 2 0
-32 37 2 0
-33 63 38 0
-33 63 3 0
-33 38 3 0
-34 64 39 0
-34 64 4 0
-34 39 4 0
-35 65 40 0
-35 65 5 0
-35 40 5 0
-31 -61 -36 -1 0
-32 -62 -37 -2 0
-33 -63 -38 -3 0
-34 -64 -39 -4 0
-35 -65 -40 -5 0
-36 -207 0
-36 -208 0
-36 -209 0
-37 207 0
-37 -208 0
-37 -209 0
-38 -207 0
-38 208 0
-38 -209 0
-39 207 0
-39 208 0
-39 -209 0
-40 -207 0
-40 -208 0
-40 209 0
-36 66 41 6 0
-36 66 41 31 0
-36 66 6 31 0
-36 41 6 31 0
-37 67 42 7 0
-37 67 42 32 0
-37 67 7 32 0
-37 42 7 32 0
-38 68 43 8 0
-38 68 43 33 0
-38 68 8 33 0
-38 43 8 33 0
-39 69 44 9 0
-39 69 44 34 0
-39 69 9 34 0
-39 44 9 34 0
-40 70 45 10 0
-40 70 45 35 0
-40 70 10 35 0
-40 45 10 35 0
-36 -66 -41 -6 0
-36 -66 -41 -31 0
-36 -66 -6 -31 0
-36 -41 -6 -31 0
-37 -67 -42 -7 0
-37 -67 -42 -32 0
-37 -67 -7 -32 0
-37 -42 -7 -32 0
-38 -68 -43 -8 0
-38 -68 -43 -33 0
-38 -68 -8 -33 0
-38 -43 -8 -33 0
-39 -69 -44 -9 0
-39 -69 -44 -34 0
-39 -69 -9 -34 0
-39 -44 -9 -34 0
-40 -70 -45 -10 0
-40 -70 -45 -35 0
-40 -70 -10 -35 0
-40 -45 -10 -35 0
-41 -210 0
-41 -211 0
-41 -212 0
-42 210 0
-42 -211 0
-42 -212 0
-43 -210 0
-43 211 0
-43 -212 0
-44 210 0
-44 211 0
-44 -212 0
-45 -210 0
-45 -211 0
-45 212 0
-41 71 46 11 0
-41 71 46 36 0
-41 71 11 36 0
-41 46 11 36 0
-42 72 47 12 0
-42 72 47 37 0
-42 72 12 37 0
-42 47 12 37 0
-43 73 48 13 0
-43 73 48 38 0
-43 73 13 38 0
-43 48 13 38 0
-44 74 49 14 0
-44 74 49 39 0
-44 74 14 39 0
-44 49 14 39 0
-45 75 50 15 0
-45 75 50 40 0
-45 75 15 40 0
-45 50 15 40 0
-41 -71 -46 -11 0
-41 -71 -46 -36 0
-41 -71 -11 -36 0
-41 -46 -11 -36 0
-42 -72 -47 -12 0
-42 -72 -47 -37 0
-42 -72 -12 -37 0
-42 -47 -12 -37 0
-43 -73 -48 -13 0
-43 -73 -48 -38 0
-43 -73 -13 -38 0
-43 -48 -13 -38 0
-44 -74 -49 -14 0
-44 -74 -49 -39 0
-44 -74 -14 -39 0
-44 -49 -14 -39 0
-45 -75 -50 -15 0
-45 -75 -50 -40 0
-45 -75 -15 -40 0
-45 -50 -15 -40 0
-46 -213 0
-46 -214 0
-46 -215 0
-47 213 0
-47 -214 0
-47 -215 0
-48 -213 0
-48 214 0
-48 -215 0
-49 213 0
-49 214 0
-49 -215 0
-50 -213 0
-50 -214 0
-50 215 0
-46 76 51 16 0
-46 76 51 41 0
-46 76 16 41 0
-46 51 16 41 0
-47 77 52 17 0
-47 77 52 42 0
-47 77 17 42 0
-47 52 17 42 0
-48 78 53 18 0
-48 78 53 43 0
-48 78 18 43 0
-48 53 18 43 0
-49 79 54 19 0
-49 79 54 44 0
-49 79 19 44 0
-49 54 19 44 0
-50 80 55 20 0
-50 80 55 45 0
-50 80 20 45 0
-50 55 20 45 0
-46 -76 -51 -16 0
-46 -76 -51 -41 0
-46 -76 -16 -41 0
-46 -51 -16 -41 0
-47 -77 -52 -17 0
-47 -77 -52 -42 0
-47 -77 -17 -42 0
-47 -52 -17 -42 0
-48 -78 -53 -18 0
-48 -78 -53 -43 0
-48 -78 -18 -43 0
-48 -53 -18 -43 0
-49 -79 -54 -19 0
-49 -79 -54 -44 0
-49 -79 -19 -44 0
-49 -54 -19 -44 0
-50 -80 -55 -20 0
-50 -80 -55 -45 0
-50 -80 -20 -45 0
-50 -55 -20 -45 0
55 0
-51 0
-52 0
-53 0
-54 0
85 60 25 50 0
-85 -60 0
-85 -25 0
-85 -50 0
-60 -25 0
-60 -50 0
-25 -50 0
-56 -219 0
-56 -220 0
-56 -221 0
-57 219 0
-57 -220 0
-57 -221 0
-58 -219 0
-58 220 0
-58 -221 0
-59 219 0
-59 220 0
-59 -221 0
-60 -219 0
-60 -220 0
-60 221 0
-56 86 51 0
-56 86 26 0
-56 51 26 0
-57 87 52 0
-57 87 27 0
-57 52 27 0
-58 88 53 0
-58 88 28 0
-58 53 28 0
-59 89 54 0
-59 89 29 0
-59 54 29 0
-60 90 55 0
-60 90 30 0
-60 55 30 0
-56 -86 -51 -26 0
-57 -87 -52 -27 0
-58 -88 -53 -28 0
-59 -89 -54 -29 0
-60 -90 -55 -30 0
-61 -222 0
-61 -223 0
-61 -224 0
-62 222 0
-62 -223 0
-62 -224 0
-63 -222 0
-63 223 0
-63 -224 0
-64 222 0
-64 223 0
-64 -224 0
-65 -222 0
-65 -223 0
-65 224 0
-61 91 66 0
-61 91 31 0
-61 66 31 0
-62 92 67 0
-62 92 32 0
-62 67 32 0
-63 93 68 0
-63 93 33 0
-63 68 33 0
-64 94 69 0
-64 94 34 0
-64 69 34 0
-65 95 70 0
-65 95 35 0
-65 70 35 0
-61 -91 -66 -31 0
-62 -92 -67 -32 0
-63 -93 -68 -33 0
-64 -94 -69 -34 0
-65 -95 -70 -35 0
-66 -225 0
-66 -226 0
-66 -227 0
-67 225 0
-67 -226 0
-67 -227 0
-68 -225 0
-68 226 0
-68 -227 0
-69 225 0
-69 226 0
-69 -227 0
-70 -225 0
-70 -226 0
-70 227 0
-66 96 71 36 0
-66 96 71 61 0
-66 96 36 61 0
-66 71 36 61 0
-67 97 72 37 0
-67 97 72 62 0
-67 97 37 62 0
-67 72 37 62 0
-68 98 73 38 0
-68 98 73 63 0
-68 98 38 63 0
-68 73 38 63 0
-69 99 74 39 0
-69 99 74 64 0
-69 99 39 64 0
-69 74 39 64 0
-70 100 75 40 0
-70 100 75 65 0
-70 100 40 65 0
-70 75 40 65 0
-66 -96 -71 -36 0
-66 -96 -71 -61 0
-66 -96 -36 -61 0
-66 -71 -36 -61 0
-67 -97 -72 -37 0
-67 -97 -72 -62 0
-67 -97 -37 -62 0
-67 -72 -37 -62 0
-68 -98 -73 -38 0
-68 -98 -73 -63 0
-68 -98 -38 -63 0
-68 -73 -38 -63 0
-69 -99 -74 -39 0
-69 -99 -74 -64 0
-69 -99 -39 -64 0
-69 -74 -39 -64 0
-70 -100 -75 -40 0
-70 -100 -75 -65 0
-70 -100 -40 -65 0
-70 -75 -40 -65 0
-71 -228 0
-71 -229 0
-71 -230 0
-72 228 0
-72 -229 0
-72 -230 0
-73 -228 0
-73 229 0
-73 -230 0
-74 228 0
-74 229 0
-74 -230 0
-75 -228 0
-75 -229 0
-75 230 0
-71 101 76 41 0
-71 101 76 66 0
-71 101 41 66 0
-71 76 41 66 0
-72 102 77 42 0
-72 102 77 67 0
-72 102 42 67 0
-72 77 42 67 0
-73 103 78 43 0
-73 103 78 68 0
-73 103 43 68 0
-73 78 43 68 0
-74 104 79 44 0
-74 104 79 69 0
-74 104 44 69 0
-74 79 44 69 0
-75 105 80 45 0
-75 105 80 70 0
-75 105 45 70 0
-75 80 45 70 0
-71 -101 -76 -41 0
-71 -101 -76 -66 0
-71 -101 -41 -66 0
-71 -76 -41 -66 0
-72 -102 -77 -42 0
-72 -102 -77 -67 0
-72 -102 -42 -67 0
-72 -77 -42 -67 0
-73 -103 -78 -43 0
-73 -103 -78 -68 0
-73 -103 -43 -68 0
-73 -78 -43 -68 0
-74 -104 -79 -44 0
-74 -104 -79 -69 0
-74 -104 -44 -69 0
-74 -79 -44 -69 0
-75 -105 -80 -45 0
-75 -105 -80 -70 0
-75 -105 -45 -70 0
-75 -80 -45 -70 0
-76 -231 0
-76 -232 0
-76 -233 0
-77 231 0
-77 -232 0
-77 -233 0
-78 -231 0
-78 232 0
-78 -233 0
-79 231 0
-79 232 0
-79 -233 0
-80 -231 0
-80 -232 0
-80 233 0
-76 106 81 46 0
-76 106 81 71 0
-76 106 46 71 0
-76 81 46 71 0
-77 107 82 47 0
-77 107 82 72 0
-77 107 47 72 0
-77 82 47 72 0
-78 108 83 48 0
-78 108 83 73 0
-78 108 48 73 0
-78 83 48 73 0
-79 109 84 49 0
-79 109 84 74 0
-79 109 49 74 0
-79 84 49 74 0
-80 110 85 50 0
-80 110 85 75 0
-80 110 50 75 0
-80 85 50 75 0
-76 -106 -81 -46 0
-76 -106 -81 -71 0
-76 -106 -46 -71 0
-76 -81 -46 -71 0
-77 -107 -82 -47 0
-77 -107 -82 -72 0
-77 -107 -47 -72 0
-77 -82 -47 -72 0
-78 -108 -83 -48 0
-78 -108 -83 -73 0
-78 -108 -48 -73 0
-78 -83 -48 -73 0
-79 -109 -84 -49 0
-79 -109 -84 -74 0
-79 -109 -49 -74 0
-79 -84 -49 -74 0
-80 -110 -85 -50 0
-80 -110 -85 -75 0
-80 -110 -50 -75 0
-80 -85 -50 -75 0
82 0
-81 0
-83 0
-84 0
-85 0
112 87 52 77 0
-112 -87 0
-112 -52 0
-112 -77 0
-87 -52 0
-87 -77 0
-52 -77 0
-86 -237 0
-86 -238 0
-86 -239 0
-87 237 0
-87 -238 0
-87 -239 0
-88 -237 0
-88 238 0
-88 -239 0
-89 237 0
-89 238 0
-89 -239 0
-90 -237 0
-90 -238 0
-90 239 0
-86 116 81 0
-86 116 56 0
-86 81 56 0
-87 117 82 0
-87 117 57 0
-87 82 57 0
-88 118 83 0
-88 118 58 0
-88 83 58 0
-89 119 84 0
-89 119 59 0
-89 84 59 0
-90 120 85 0
-90 120 60 0
-90 85 60 0
-86 -116 -81 -56 0
-87 -117 -82 -57 0
-88 -118 -83 -58 0
-89 -119 -84 -59 0
-90 -120 -85 -60 0
-91 -240 0
-91 -241 0
-91 -242 0
-92 240 0
-92 -241 0
-92 -242 0
-93 -240 0
-93 241 0
-93 -242 0
-94 240 0
-94 241 0
-94 -242 0
-95 -240 0
-95 -241 0
-95 242 0
-91 121 96 0
-91 121 61 0
-91 96 61 0
-92 122 97 0
-92 122 62 0
-92 97 62 0
-93 123 98 0
-93 123 63 0
-93 98 63 0
-94 124 99 0
-94 124 64 0
-94 99 64 0
-95 125 100 0
-95 125 65 0
-95 100 65 0
-91 -121 -96 -61 0
-92 -122 -97 -62 0
-93 -123 -98 -63 0
-94 -124 -99 -64 0
-95 -125 -100 -65 0
98 0
-96 0
-97 0
-99 0
-100 0
128 103 68 93 0
-128 -103 0
-128 -68 0
-128 -93 0
-103 -68 0
-103 -93 0
-68 -93 0
-101 -246 0
-101 -247 0
-101 -248 0
-102 246 0
-102 -247 0
-102 -248 0
-103 -246 0
-103 247 0
-103 -248 0
-104 246 0
-104 247 0
-104 -248 0
-105 -246 0
-105 -247 0
-105 248 0
-101 131 106 71 0
-101 131 106 96 0
-101 131 71 96 0
-101 106 71 96 0
-102 132 107 72 0
-102 132 107 97 0
-102 132 72 97 0
-102 107 72 97 0
-103 133 108 73 0
-103 133 108 98 0
-103 133 73 98 0
-103 108 73 98 0
-104 134 109 74 0
-104 134 109 99 0
-104 134 74 99 0
-104 109 74 99 0
-105 135 110 75 0
-105 135 110 100 0
-105 135 75 100 0
-105 110 75 100 0
-101 -131 -106 -71 0
-101 -131 -106 -96 0
-101 -131 -71 -96 0
-101 -106 -71 -96 0
-102 -132 -107 -72 0
-102 -132 -107 -97 0
-102 -132 -72 -97 0
-102 -107 -72 -97 0
-103 -133 -108 -73 0
-103 -133 -108 -98 0
-103 -133 -73 -98 0
-103 -108 -73 -98 0
-104 -134 -109 -74 0
-104 -134 -109 -99 0
-104 -134 -74 -99 0
-104 -109 -74 -99 0
-105 -135 -110 -75 0
-105 -135 -110 -100 0
-105 -135 -75 -100 0
-105 -110 -75 -100 0
-106 -249 0
-106 -250 0
-106 -251 0
-107 249 0
-107 -250 0
-107 -251 0
-108 -249 0
-108 250 0
-108 -251 0
-109 249 0
-109 250 0
-109 -251 0
-110 -249 0
-110 -250 0
-110 251 0
-106 136 111 76 0
-106 136 111 101 0
-106 136 76 101 0
-106 111 76 101 0
-107 137 112 77 0
-107 137 112 102 0
-107 137 77 102 0
-107 112 77 102 0
-108 138 113 78 0
-108 138 113 103 0
-108 138 78 103 0
-108 113 78 103 0
-109 139 114 79 0
-109 139 114 104 0
-109 139 79 104 0
-109 114 79 104 0
-110 140 115 80 0
-110 140 115 105 0
-110 140 80 105 0
-110 115 80 105 0
-106 -136 -111 -76 0
-106 -136 -111 -101 0
-106 -136 -76 -101 0
-106 -111 -76 -101 0
-107 -137 -112 -77 0
-107 -137 -112 -102 0
-107 -137 -77 -102 0
-107 -112 -77 -102 0
-108 -138 -113 -78 0
-108 -138 -113 -103 0
-108 -138 -78 -103 0
-108 -113 -78 -103 0
-109 -139 -114 -79 0
-109 -139 -114 -104 0
-109 -139 -79 -104 0
-109 -114 -79 -104 0
-110 -140 -115 -80 0
-110 -140 -115 -105 0
-110 -140 -80 -105 0
-110 -115 -80 -105 0
-111 -252 0
-111 -253 0
-111 -254 0
-112 252 0
-112 -253 0
-112 -254 0
-113 -252 0
-113 253 0
-113 -254 0
-114 252 0
-114 253 0
-114 -254 0
-115 -252 0
-115 -253 0
-115 254 0
-111 141 116 81 0
-111 141 116 106 0
-111 141 81 106 0
-111 116 81 106 0
-112 142 117 82 0
-112 142 117 107 0
-112 142 82 107 0
-112 117 82 107 0
-113 143 118 83 0
-113 143 118 108 0
-113 143 83 108 0
-113 118 83 108 0
-114 144 119 84 0
-114 144 119 109 0
-114 144 84 109 0
-114 119 84 109 0
-115 145 120 85 0
-115 145 120 110 0
-115 145 85 110 0
-115 120 85 110 0
-111 -141 -116 -81 0
-111 -141 -116 -106 0
-111 -141 -81 -106 0
-111 -116 -81 -106 0
-112 -142 -117 -82 0
-112 -142 -117 -107 0
-112 -142 -82 -107 0
-112 -117 -82 -107 0
-113 -143 -118 -83 0
-113 -143 -118 -108 0
-113 -143 -83 -108 0
-113 -118 -83 -108 0
-114 -144 -119 -84 0
-114 -144 -119 -109 0
-114 -144 -84 -109 0
-114 -119 -84 -109 0
-115 -145 -120 -85 0
-115 -145 -120 -110 0
-115 -145 -85 -110 0
-115 -120 -85 -110 0
-116 -255 0
-116 -256 0
-116 -257 0
-117 255 0
-117 -256 0
-117 -257 0
-118 -255 0
-118 256 0
-118 -257 0
-119 255 0
-119 256 0
-119 -257 0
-120 -255 0
-120 -256 0
-120 257 0
-116 146 111 0
-116 146 86 0
-116 111 86 0
-117 147 112 0
-117 147 87 0
-117 112 87 0
-118 148 113 0
-118 148 88 0
-118 113 88 0
-119 149 114 0
-119 149 89 0
-119 114 89 0
-120 150 115 0
-120 150 90 0
-120 115 90 0
-116 -146 -111 -86 0
-117 -147 -112 -87 0
-118 -148 -113 -88 0
-119 -149 -114 -89 0
-120 -150 -115 -90 0
-121 -258 0
-121 -259 0
-121 -260 0
-122 258 0
-122 -259 0
-122 -260 0
-123 -258 0
-123 259 0
-123 -260 0
-124 258 0
-124 259 0
-124 -260 0
-125 -258 0
-125 -259 0
-125 260 0
-121 151 126 0
-121 151 91 0
-121 126 91 0
-122 152 127 0
-122 152 92 0
-122 127 92 0
-123 153 128 0
-123 153 93 0
-123 128 93 0
-124 154 129 0
-124 154 94 0
-124 129 94 0
-125 155 130 0
-125 155 95 0
-125 130 95 0
-121 -151 -126 -91 0
-122 -152 -127 -92 0
-123 -153 -128 -93 0
-124 -154 -129 -94 0
-125 -155 -130 -95 0
129 0
-126 0
-127 0
-128 0
-130 0
159 134 99 124 0
-159 -134 0
-159 -99 0
-159 -124 0
-134 -99 0
-134 -124 0
-99 -124 0
-131 -264 0
-131 -265 0
-131 -266 0
-132 264 0
-132 -265 0
-132 -266 0
-133 -264 0
-133 265 0
-133 -266 0
-134 264 0
-134 265 0
-134 -266 0
-135 -264 0
-135 -265 0
-135 266 0
-131 161 136 101 0
-131 161 136 126 0
-131 161 101 126 0
-131 136 101 126 0
-132 162 137 102 0
-132 162 137 127 0
-132 162 102 127 0
-132 137 102 127 0
-133 163 138 103 0
-133 163 138 128 0
-133 163 103 128 0
-133 138 103 128 0
-134 164 139 104 0
-134 164 139 129 0
-134 164 104 129 0
-134 139 104 129 0
-135 165 140 105 0
-135 165 140 130 0
-135 165 105 130 0
-135 140 105 130 0
-131 -161 -136 -101 0
-131 -161 -136 -126 0
-131 -161 -101 -126 0
-131 -136 -101 -126 0
-132 -162 -137 -102 0
-132 -162 -137 -127 0
-132 -162 -102 -127 0
-132 -137 -102 -127 0
-133 -163 -138 -103 0
-133 -163 -138 -128 0
-133 -163 -103 -128 0
-133 -138 -103 -128 0
-134 -164 -139 -104 0
-134 -164 -139 -129 0
-134 -164 -104 -129 0
-134 -139 -104 -129 0
-135 -165 -140 -105 0
-135 -165 -140 -130 0
-135 -165 -105 -130 0
-135 -140 -105 -130 0
139 0
-136 0
-137 0
-138 0
-140 0
169 144 109 134 0
-169 -144 0
-169 -109 0
-169 -134 0
-144 -109 0
-144 -134 0
-109 -134 0
143 0
-141 0
-142 0
-144 0
-145 0
173 148 113 138 0
-173 -148 0
-173 -113 0
-173 -138 0
-148 -113 0
-148 -138 0
-113 -138 0
-146 -273 0
-146 -274 0
-146 -275 0
-147 273 0
-147 -274 0
-147 -275 0
-148 -273 0
-148 274 0
-148 -275 0
-149 273 0
-149 274 0
-149 -275 0
-150 -273 0
-150 -274 0
-150 275 0
-146 176 141 0
-146 176 116 0
-146 141 116 0
-147 177 142 0
-147 177 117 0
-147 142 117 0
-148 178 143 0
-148 178 118 0
-148 143 118 0
-149 179 144 0
-149 179 119 0
-149 144 119 0
-150 180 145 0
-150 180 120 0
-150 145 120 0
-146 -176 -141 -116 0
-147 -177 -142 -117 0
-148 -178 -143 -118 0
-149 -179 -144 -119 0
-150 -180 -145 -120 0
152 0
-151 0
-153 0
-154 0
-155 0
122 157 0
-122 -157 0
156 0
-157 0
-158 0
-159 0
-160 0
126 161 151 0
-126 -161 0
-126 -151 0
-161 -151 0
-161 -282 0
-161 -283 0
-161 -284 0
-162 282 0
-162 -283 0
-162 -284 0
-163 -282 0
-163 283 0
-163 -284 0
-164 282 0
-164 283 0
-164 -284 0
-165 -282 0
-165 -283 0
-165 284 0
-161 131 166 0
-161 131 156 0
-161 166 156 0
-162 132 167 0
-162 132 157 0
-162 167 157 0
-163 133 168 0
-163 133 158 0
-163 168 158 0
-164 134 169 0
-164 134 159 0
-164 169 159 0
-165 135 170 0
-165 135 160 0
-165 170 160 0
-161 -131 -166 -156 0
-162 -132 -167 -157 0
-163 -133 -168 -158 0
-164 -134 -169 -159 0
-165 -135 -170 -160 0
-166 -285 0
-166 -286 0
-166 -287 0
-167 285 0
-167 -286 0
-167 -287 0
-168 -285 0
-168 286 0
-168 -287 0
-169 285 0
-169 286 0
-169 -287 0
-170 -285 0
-170 -286 0
-170 287 0
-166 136 171 0
-166 136 161 0
-166 171 161 0
-167 137 172 0
-167 137 162 0
-167 172 162 0
-168 138 173 0
-168 138 163 0
-168 173 163 0
-169 139 174 0
-169 139 164 0
-169 174 164 0
-170 140 175 0
-170 140 165 0
-170 175 165 0
-166 -136 -171 -161 0
-167 -137 -172 -162 0
-168 -138 -173 -163 0
-169 -139 -174 -164 0
-170 -140 -175 -165 0
-171 -288 0
-171 -289 0
-171 -290 0
-172 288 0
-172 -289 0
-172 -290 0
-173 -288 0
-173 289 0
-173 -290 0
-174 288 0
-174 289 0
-174 -290 0
-175 -288 0
-175 -289 0
-175 290 0
-171 141 176 0
-171 141 166 0
-171 176 166 0
-172 142 177 0
-172 142 167 0
-172 177 167 0
-173 143 178 0
-173 143 168 0
-173 178 168 0
-174 144 179 0
-174 144 169 0
-174 179 169 0
-175 145 180 0
-175 145 170 0
-175 180 170 0
-171 -141 -176 -166 0
-172 -142 -177 -167 0
-173 -143 -178 -168 0
-174 -144 -179 -169 0
-175 -145 -180 -170 0
-176 -291 0
-176 -292 0
-176 -293 0
-177 291 0
-177 -292 0
-177 -293 0
-178 -291 0
-178 292 0
-178 -293 0
-179 291 0
-179 292 0
-179 -293 0
-180 -291 0
-180 -292 0
-180 293 0
-176 146 0
-176 171 0
-177 147 0
-177 172 0
-178 148 0
-178 173 0
-179 149 0
-179 174 0
-180 150 0
-180 175 0
31 36 41 46 56 0
61 66 71 76 86 0
91 101 106 111 116 0
121 131 146 0
92 102 107 112 117 0
122 132 147 0
37 67 0
12 42 72 102 132 162 0
17 47 77 107 167 0
13 43 73 103 133 163 0
18 48 78 108 168 0
14 44 74 104 134 164 0
40 70 0
15 45 75 105 135 165 0
20 50 80 110 170 0